c Generated map
c Size: 12 * 12, weights in range: 1 to 10, walls: True, with ratio 0.1
c dim 5 of 5
c
p sp 144 217
c graph contains 144 nodes and 217 arcs
c
a 1 13 5
a 13 1 5
a 1 2 2
a 2 1 2
a 2 14 7
a 14 2 7
a 2 3 1
a 3 2 1
a 3 15 2
a 15 3 2
a 3 4 8
a 4 3 8
a 4 16 9
a 16 4 9
a 4 5 6
a 5 4 6
a 5 17 3
a 17 5 3
a 7 8 5
a 8 7 5
a 8 20 4
a 20 8 4
a 8 9 2
a 9 8 2
a 9 21 5
a 21 9 5
a 9 10 4
a 10 9 4
a 10 22 9
a 22 10 9
a 10 11 4
a 11 10 4
a 11 23 7
a 23 11 7
a 13 25 4
a 25 13 4
a 13 14 7
a 14 13 7
a 14 26 10
a 26 14 10
a 14 15 9
a 15 14 9
a 15 27 10
a 27 15 10
a 15 16 2
a 16 15 2
a 16 28 3
a 28 16 3
a 16 17 8
a 17 16 8
a 17 29 3
a 29 17 3
a 20 32 5
a 32 20 5
a 20 21 4
a 21 20 4
a 21 33 1
a 33 21 1
a 21 22 5
a 22 21 5
a 22 34 7
a 34 22 7
a 22 23 4
a 23 22 4
a 23 35 4
a 35 23 4
a 23 24 3
a 24 23 3
a 24 36 1
a 36 24 1
a 25 37 9
a 37 25 9
a 25 26 6
a 26 25 6
a 26 38 7
a 38 26 7
a 26 27 10
a 27 26 10
a 27 39 3
a 39 27 3
a 27 28 7
a 28 27 7
a 28 29 7
a 29 28 7
a 29 41 6
a 41 29 6
a 29 30 7
a 30 29 7
a 30 42 6
a 42 30 6
a 30 31 10
a 31 30 10
a 31 43 6
a 43 31 6
a 31 32 3
a 32 31 3
a 32 44 10
a 44 32 10
a 32 33 8
a 33 32 8
a 33 45 10
a 45 33 10
a 33 34 10
a 34 33 10
a 34 46 8
a 46 34 8
a 34 35 8
a 35 34 8
a 35 47 10
a 47 35 10
a 35 36 10
a 36 35 10
a 36 48 4
a 48 36 4
a 37 38 6
a 38 37 6
a 38 50 10
a 50 38 10
a 38 39 2
a 39 38 2
a 39 51 10
a 51 39 10
a 41 53 9
a 53 41 9
a 41 42 3
a 42 41 3
a 42 43 6
a 43 42 6
a 43 55 2
a 55 43 2
a 43 44 3
a 44 43 3
a 44 56 7
a 56 44 7
a 44 45 7
a 45 44 7
a 45 57 2
a 57 45 2
a 45 46 1
a 46 45 1
a 46 58 3
a 58 46 3
a 46 47 9
a 47 46 9
a 47 59 1
a 59 47 1
a 47 48 1
a 48 47 1
a 48 60 1
a 60 48 1
a 50 51 3
a 51 50 3
a 51 63 8
a 63 51 8
a 51 52 4
a 52 51 4
a 52 64 7
a 64 52 7
a 52 53 8
a 53 52 8
a 53 65 1
a 65 53 1
a 55 67 9
a 67 55 9
a 55 56 5
a 56 55 5
a 56 68 4
a 68 56 4
a 56 57 1
a 57 56 1
a 57 69 4
a 69 57 4
a 57 58 3
a 58 57 3
a 58 70 9
a 70 58 9
a 58 59 1
a 59 58 1
a 59 71 1
a 71 59 1
a 59 60 2
a 60 59 2
a 60 72 9
a 72 60 9
a 61 73 5
a 73 61 5
a 63 64 1
a 64 63 1
a 64 76 8
a 76 64 8
a 64 65 9
a 65 64 9
a 65 77 6
a 77 65 6
a 65 66 6
a 66 65 6
a 66 78 4
a 78 66 4
a 66 67 1
a 67 66 1
a 67 79 4
a 79 67 4
a 67 68 8
a 68 67 8
a 68 80 5
a 80 68 5
a 68 69 4
a 69 68 4
a 69 81 7
a 81 69 7
a 69 70 3
a 70 69 3
a 70 82 4
a 82 70 4
a 70 71 1
a 71 70 1
a 71 83 4
a 83 71 4
a 71 72 9
a 72 71 9
a 73 85 3
a 85 73 3
a 73 74 3
a 74 73 3
a 74 86 1
a 86 74 1
a 76 88 9
a 88 76 9
a 76 77 5
a 77 76 5
a 77 89 4
a 89 77 4
a 77 78 1
a 78 77 1
a 78 90 1
a 90 78 1
a 78 79 9
a 79 78 9
a 79 91 7
a 91 79 7
a 79 80 5
a 80 79 5
a 80 92 2
a 92 80 2
a 80 81 6
a 81 80 6
a 81 93 3
a 93 81 3
a 81 82 10
a 82 81 10
a 82 94 10
a 94 82 10
a 82 83 5
a 83 82 5
a 83 95 9
a 95 83 9
a 85 97 6
a 97 85 6
a 85 86 10
a 86 85 10
a 86 98 3
a 98 86 3
a 88 100 5
a 100 88 5
a 88 89 1
a 89 88 1
a 89 101 6
a 101 89 6
a 89 90 1
a 90 89 1
a 90 102 3
a 102 90 3
a 90 91 2
a 91 90 2
a 91 103 7
a 103 91 7
a 91 92 3
a 92 91 3
a 92 104 4
a 104 92 4
a 92 93 10
a 93 92 10
a 93 105 2
a 105 93 2
a 93 94 3
a 94 93 3
a 94 106 10
a 106 94 10
a 94 95 2
a 95 94 2
a 95 107 6
a 107 95 6
a 95 96 7
a 96 95 7
a 96 108 1
a 108 96 1
a 97 109 10
a 109 97 10
a 97 98 1
a 98 97 1
a 98 99 4
a 99 98 4
a 99 111 3
a 111 99 3
a 99 100 10
a 100 99 10
a 100 101 8
a 101 100 8
a 101 113 5
a 113 101 5
a 101 102 9
a 102 101 9
a 102 114 6
a 114 102 6
a 102 103 3
a 103 102 3
a 103 115 5
a 115 103 5
a 103 104 1
a 104 103 1
a 104 116 7
a 116 104 7
a 104 105 6
a 105 104 6
a 105 117 2
a 117 105 2
a 105 106 2
a 106 105 2
a 106 118 1
a 118 106 1
a 106 107 9
a 107 106 9
a 107 119 2
a 119 107 2
a 107 108 8
a 108 107 8
a 108 120 2
a 120 108 2
a 109 121 9
a 121 109 9
a 111 123 4
a 123 111 4
a 113 125 10
a 125 113 10
a 113 114 1
a 114 113 1
a 114 126 8
a 126 114 8
a 114 115 1
a 115 114 1
a 115 127 2
a 127 115 2
a 115 116 10
a 116 115 10
a 116 128 2
a 128 116 2
a 116 117 1
a 117 116 1
a 117 129 7
a 129 117 7
a 117 118 7
a 118 117 7
a 118 130 4
a 130 118 4
a 118 119 2
a 119 118 2
a 119 131 8
a 131 119 8
a 119 120 3
a 120 119 3
a 120 132 7
a 132 120 7
a 121 133 10
a 133 121 10
a 121 122 2
a 122 121 2
a 122 134 9
a 134 122 9
a 122 123 3
a 123 122 3
a 123 135 6
a 135 123 6
a 123 124 4
a 124 123 4
a 124 136 10
a 136 124 10
a 124 125 10
a 125 124 10
a 125 137 1
a 137 125 1
a 125 126 9
a 126 125 9
a 126 138 8
a 138 126 8
a 126 127 5
a 127 126 5
a 127 139 10
a 139 127 10
a 127 128 2
a 128 127 2
a 128 129 7
a 129 128 7
a 129 141 9
a 141 129 9
a 129 130 5
a 130 129 5
a 130 142 8
a 142 130 8
a 130 131 4
a 131 130 4
a 131 143 4
a 143 131 4
a 131 132 6
a 132 131 6
a 132 144 7
a 144 132 7
a 133 134 8
a 134 133 8
a 134 135 3
a 135 134 3
a 135 136 10
a 136 135 10
a 136 137 9
a 137 136 9
a 137 138 10
a 138 137 10
a 138 139 5
a 139 138 5
a 141 142 8
a 142 141 8
a 142 143 7
a 143 142 7
a 143 144 2
a 144 143 2
